
Route #1: 3 54 30 34 31 55 20 49 13 48 32 
Route #2: 1 52 16 40 44 14 51 28 46 10 29 
Route #3: 27 36 33 25 53 45 41 42 
Route #4: 6 24 37 39 26 47 21 35 
Route #5: 9 50 22 38 23 43 18 19 5 
Route #6: 15 7 4 8 17 12 
Route #7: 2 11 
cost 1044.84
total time is 5.3